clear
package omp 8 # For parallelisation. 

### DEFINE THERMODYNAMIC STATE ###
variable density equal 0.05
variable temperature equal 1
variable timestep equal 0.001

### SPECIFY THE NUMBER OF PRODUCTION STEPS ###
variable Nprod equal 30000

### DEFINE SIMULATION BOX GEOMETRY ###
lattice sc ${density}  # Modify to fcc for the solid
region box block 0 5 0 5 0 5
create_box 1 box
create_atoms 1 box

### DEFINE PHYSICAL PROPERTIES OF ATOMS ###
mass 1 1.0
pair_style lj/cut/omp 2.5
pair_coeff 1 1 1.0 1.0
neighbor 2.0 bin

### ASSIGN ATOMIC VELOCITIES ###
velocity all create ${temperature} 12345 dist gaussian rot yes mom yes

### SPECIFY ENSEMBLE ###
timestep ${timestep}

### THERMODYNAMIC OUTPUT CONTROL ###
thermo_style custom step time etotal temp press
thermo 100

### BRING SYSTEM TO REQUIRED STATE ###
variable tdamp equal ${timestep}*100
fix nvt all nvt temp ${temperature} ${temperature} ${tdamp}
run 10000
reset_timestep 0

### RECORD TRAJECTORY ###
### Note the file name is the density_temperature.dump
dump traj all custom 100 ${density}_${temperature}.dump id x y z
run ${Nprod}
